(set-logic QF_S)
(declare-fun var0 () String)
(declare-fun var1 () String)
(declare-fun var2 () String)
(declare-fun var3 () String)
(declare-fun var4 () Int)
(assert (str.prefixof var0 var1))
(assert (>= (str.to.int var2) (str.to.int var3)))
(assert (str.in.re (str.replace var3 var0 var2) (re.* re.allchar)))
(assert (>= (str.len (str.replace var1 var3 var1)) (str.indexof var3 var0 var4)))
(check-sat)